c File: data_files/evolved_graphs/g0140.col
c
c Auto generated graph
c
p edge 100 1490
e 1 6
e 1 22
e 1 23
e 1 24
e 1 28
e 1 29
e 1 33
e 1 34
e 1 36
e 1 38
e 1 39
e 1 40
e 1 41
e 1 42
e 1 45
e 1 48
e 1 51
e 1 52
e 1 53
e 1 54
e 1 55
e 1 70
e 1 73
e 1 74
e 1 77
e 1 92
e 1 97
e 1 98
e 1 99
e 1 100
e 2 10
e 2 15
e 2 17
e 2 20
e 2 22
e 2 23
e 2 24
e 2 25
e 2 26
e 2 29
e 2 30
e 2 32
e 2 33
e 2 34
e 2 35
e 2 43
e 2 46
e 2 47
e 2 48
e 2 49
e 2 50
e 2 52
e 2 54
e 2 55
e 2 56
e 2 79
e 2 87
e 2 99
e 2 100
e 3 5
e 3 11
e 3 13
e 3 17
e 3 18
e 3 20
e 3 22
e 3 23
e 3 24
e 3 25
e 3 26
e 3 28
e 3 33
e 3 36
e 3 38
e 3 40
e 3 42
e 3 45
e 3 48
e 3 49
e 3 51
e 3 52
e 3 54
e 3 58
e 3 59
e 3 65
e 4 14
e 4 17
e 4 18
e 4 22
e 4 23
e 4 24
e 4 30
e 4 31
e 4 32
e 4 33
e 4 41
e 4 43
e 4 45
e 4 46
e 4 49
e 4 51
e 4 53
e 4 58
e 4 66
e 4 78
e 4 80
e 4 87
e 4 90
e 4 91
e 4 94
e 4 98
e 4 100
e 5 12
e 5 13
e 5 17
e 5 22
e 5 23
e 5 26
e 5 28
e 5 34
e 5 39
e 5 42
e 5 43
e 5 45
e 5 49
e 5 50
e 5 51
e 5 52
e 5 74
e 5 80
e 5 87
e 5 89
e 5 93
e 5 98
e 5 99
e 6 12
e 6 20
e 6 22
e 6 23
e 6 24
e 6 26
e 6 33
e 6 34
e 6 36
e 6 37
e 6 38
e 6 42
e 6 43
e 6 45
e 6 46
e 6 49
e 6 50
e 6 53
e 6 54
e 6 58
e 6 64
e 6 65
e 6 70
e 6 76
e 6 88
e 6 92
e 6 93
e 6 100
e 7 8
e 7 9
e 7 10
e 7 11
e 7 13
e 7 14
e 7 15
e 7 16
e 7 17
e 7 18
e 7 19
e 7 20
e 7 21
e 7 22
e 7 23
e 7 24
e 7 26
e 7 27
e 7 28
e 7 30
e 7 33
e 7 34
e 7 35
e 7 38
e 7 40
e 7 44
e 7 47
e 7 49
e 7 50
e 7 52
e 7 53
e 7 54
e 7 61
e 7 62
e 7 66
e 7 69
e 7 72
e 7 80
e 8 17
e 8 20
e 8 22
e 8 23
e 8 24
e 8 26
e 8 27
e 8 28
e 8 30
e 8 33
e 8 34
e 8 36
e 8 39
e 8 45
e 8 53
e 8 57
e 8 59
e 8 63
e 8 65
e 8 72
e 8 99
e 9 19
e 9 22
e 9 23
e 9 24
e 9 27
e 9 28
e 9 29
e 9 30
e 9 31
e 9 32
e 9 33
e 9 34
e 9 37
e 9 38
e 9 40
e 9 41
e 9 42
e 9 44
e 9 49
e 9 51
e 9 52
e 9 53
e 9 54
e 9 55
e 9 71
e 9 72
e 9 74
e 9 77
e 9 86
e 9 89
e 9 98
e 9 100
e 10 12
e 10 16
e 10 22
e 10 23
e 10 24
e 10 25
e 10 29
e 10 31
e 10 32
e 10 33
e 10 34
e 10 35
e 10 42
e 10 43
e 10 48
e 10 49
e 10 51
e 10 54
e 10 56
e 10 57
e 10 62
e 10 64
e 10 68
e 10 86
e 10 94
e 10 95
e 10 97
e 10 99
e 10 100
e 11 22
e 11 23
e 11 27
e 11 28
e 11 30
e 11 34
e 11 35
e 11 36
e 11 38
e 11 39
e 11 41
e 11 42
e 11 44
e 11 45
e 11 46
e 11 49
e 11 50
e 11 54
e 11 60
e 11 67
e 11 97
e 11 98
e 11 99
e 12 22
e 12 23
e 12 24
e 12 25
e 12 27
e 12 28
e 12 29
e 12 31
e 12 32
e 12 38
e 12 42
e 12 45
e 12 49
e 12 51
e 12 53
e 12 63
e 12 79
e 12 87
e 12 90
e 12 98
e 13 20
e 13 22
e 13 23
e 13 26
e 13 29
e 13 30
e 13 33
e 13 39
e 13 40
e 13 41
e 13 43
e 13 44
e 13 46
e 13 48
e 13 51
e 13 54
e 13 61
e 13 73
e 13 80
e 14 19
e 14 22
e 14 25
e 14 26
e 14 27
e 14 28
e 14 29
e 14 30
e 14 32
e 14 33
e 14 34
e 14 35
e 14 36
e 14 39
e 14 41
e 14 44
e 14 45
e 14 46
e 14 48
e 14 49
e 14 53
e 14 56
e 14 67
e 14 89
e 14 99
e 14 100
e 15 22
e 15 23
e 15 89
e 15 90
e 15 92
e 15 95
e 15 98
e 15 99
e 16 17
e 16 18
e 16 20
e 16 22
e 16 23
e 16 24
e 16 86
e 16 91
e 16 95
e 16 97
e 16 99
e 16 100
e 17 22
e 17 23
e 17 24
e 17 90
e 17 95
e 17 97
e 17 98
e 18 22
e 18 23
e 18 24
e 18 88
e 18 98
e 18 99
e 19 87
e 19 89
e 19 93
e 19 94
e 19 96
e 19 98
e 19 99
e 20 22
e 20 23
e 20 24
e 20 96
e 20 100
e 21 22
e 21 23
e 21 24
e 21 92
e 21 94
e 21 95
e 22 98
e 22 99
e 22 100
e 23 25
e 23 26
e 23 27
e 23 28
e 23 29
e 23 30
e 23 31
e 23 32
e 23 33
e 23 34
e 23 35
e 23 36
e 23 37
e 23 38
e 23 39
e 23 40
e 23 41
e 23 42
e 23 43
e 23 44
e 23 45
e 23 46
e 23 47
e 23 48
e 23 49
e 23 50
e 23 51
e 23 52
e 23 53
e 23 54
e 23 89
e 24 25
e 24 26
e 24 27
e 24 28
e 24 29
e 24 30
e 24 31
e 24 32
e 24 33
e 24 34
e 24 35
e 24 36
e 24 37
e 24 38
e 24 39
e 24 40
e 24 41
e 24 42
e 24 43
e 24 44
e 24 45
e 24 46
e 24 47
e 24 48
e 24 49
e 24 50
e 24 51
e 24 52
e 24 53
e 24 54
e 24 68
e 24 74
e 24 88
e 25 37
e 25 42
e 25 45
e 25 46
e 25 47
e 25 48
e 25 49
e 25 50
e 25 51
e 25 52
e 25 53
e 25 54
e 25 55
e 25 56
e 25 57
e 25 58
e 25 59
e 25 60
e 25 61
e 25 62
e 25 63
e 25 64
e 25 65
e 25 66
e 25 67
e 25 74
e 25 75
e 25 76
e 26 27
e 26 34
e 26 35
e 26 37
e 26 40
e 26 42
e 26 46
e 26 47
e 26 48
e 26 49
e 26 50
e 26 51
e 26 52
e 26 53
e 26 54
e 26 55
e 26 56
e 26 57
e 26 58
e 26 59
e 26 60
e 26 61
e 26 62
e 26 63
e 26 64
e 26 65
e 26 66
e 26 67
e 26 75
e 26 79
e 27 29
e 27 45
e 27 46
e 27 48
e 27 49
e 27 50
e 27 52
e 27 53
e 27 54
e 27 55
e 27 56
e 27 57
e 27 59
e 27 60
e 27 61
e 27 62
e 27 63
e 27 64
e 27 65
e 27 66
e 27 67
e 27 69
e 27 70
e 27 75
e 27 76
e 28 30
e 28 34
e 28 35
e 28 36
e 28 41
e 28 46
e 28 47
e 28 49
e 28 50
e 28 51
e 28 52
e 28 53
e 28 54
e 28 55
e 28 57
e 28 58
e 28 59
e 28 60
e 28 61
e 28 63
e 28 64
e 28 65
e 28 66
e 28 67
e 28 68
e 28 69
e 28 72
e 28 74
e 28 76
e 29 30
e 29 33
e 29 45
e 29 46
e 29 47
e 29 48
e 29 49
e 29 50
e 29 51
e 29 52
e 29 53
e 29 54
e 29 55
e 29 56
e 29 57
e 29 58
e 29 59
e 29 60
e 29 62
e 29 63
e 29 65
e 29 66
e 29 67
e 30 35
e 30 39
e 30 46
e 30 47
e 30 49
e 30 50
e 30 51
e 30 52
e 30 53
e 30 55
e 30 56
e 30 57
e 30 58
e 30 59
e 30 60
e 30 61
e 30 62
e 30 63
e 30 64
e 30 65
e 30 66
e 31 46
e 31 47
e 31 48
e 31 49
e 31 50
e 31 51
e 31 52
e 31 53
e 31 54
e 31 55
e 31 56
e 31 57
e 31 58
e 31 59
e 31 60
e 31 61
e 31 62
e 31 63
e 31 64
e 31 65
e 31 66
e 31 70
e 31 75
e 32 43
e 32 45
e 32 46
e 32 47
e 32 48
e 32 49
e 32 50
e 32 51
e 32 52
e 32 53
e 32 54
e 32 55
e 32 56
e 32 57
e 32 58
e 32 59
e 32 60
e 32 61
e 32 62
e 32 63
e 32 64
e 32 65
e 32 66
e 32 68
e 32 70
e 32 73
e 33 44
e 33 45
e 33 46
e 33 47
e 33 48
e 33 49
e 33 50
e 33 51
e 33 52
e 33 53
e 33 54
e 33 55
e 33 56
e 33 57
e 33 59
e 33 60
e 33 61
e 33 62
e 33 63
e 33 64
e 33 65
e 33 69
e 33 70
e 33 72
e 33 75
e 33 77
e 34 35
e 34 43
e 34 45
e 34 46
e 34 48
e 34 49
e 34 50
e 34 51
e 34 52
e 34 53
e 34 54
e 34 55
e 34 56
e 34 57
e 34 58
e 34 59
e 34 60
e 34 61
e 34 62
e 34 63
e 34 64
e 34 65
e 34 66
e 34 67
e 34 72
e 34 73
e 34 76
e 34 78
e 34 79
e 35 44
e 35 45
e 35 46
e 35 47
e 35 48
e 35 49
e 35 50
e 35 51
e 35 52
e 35 53
e 35 54
e 35 55
e 35 56
e 35 57
e 35 58
e 35 59
e 35 60
e 35 61
e 35 62
e 35 63
e 35 64
e 35 65
e 35 66
e 35 78
e 36 45
e 36 46
e 36 47
e 36 48
e 36 49
e 36 50
e 36 51
e 36 52
e 36 53
e 36 54
e 36 55
e 36 56
e 36 57
e 36 58
e 36 59
e 36 60
e 36 61
e 36 63
e 36 64
e 36 65
e 36 66
e 36 73
e 36 80
e 36 99
e 37 40
e 37 45
e 37 46
e 37 47
e 37 48
e 37 49
e 37 50
e 37 51
e 37 52
e 37 53
e 37 54
e 37 55
e 37 56
e 37 57
e 37 58
e 37 59
e 37 60
e 37 61
e 37 62
e 37 63
e 37 65
e 37 66
e 37 68
e 37 73
e 37 80
e 38 45
e 38 46
e 38 47
e 38 48
e 38 49
e 38 50
e 38 51
e 38 52
e 38 53
e 38 54
e 38 55
e 38 56
e 38 57
e 38 58
e 38 59
e 38 60
e 38 61
e 38 62
e 38 63
e 38 64
e 38 65
e 38 66
e 38 72
e 38 73
e 38 80
e 39 45
e 39 46
e 39 47
e 39 48
e 39 49
e 39 50
e 39 51
e 39 52
e 39 53
e 39 54
e 39 55
e 39 57
e 39 58
e 39 59
e 39 60
e 39 61
e 39 62
e 39 63
e 39 64
e 39 65
e 39 66
e 39 72
e 39 76
e 40 44
e 40 45
e 40 48
e 40 49
e 40 50
e 40 51
e 40 53
e 40 54
e 40 55
e 40 56
e 40 58
e 40 59
e 40 60
e 40 61
e 40 62
e 40 63
e 40 64
e 40 65
e 40 66
e 40 68
e 40 73
e 40 76
e 40 77
e 41 45
e 41 47
e 41 48
e 41 49
e 41 50
e 41 51
e 41 52
e 41 53
e 41 54
e 41 55
e 41 56
e 41 57
e 41 58
e 41 59
e 41 60
e 41 61
e 41 62
e 41 63
e 41 64
e 41 65
e 41 66
e 41 68
e 41 71
e 41 78
e 41 79
e 42 45
e 42 46
e 42 47
e 42 48
e 42 49
e 42 50
e 42 51
e 42 52
e 42 53
e 42 54
e 42 55
e 42 56
e 42 57
e 42 58
e 42 59
e 42 60
e 42 61
e 42 62
e 42 63
e 42 64
e 42 65
e 42 66
e 42 75
e 42 77
e 43 45
e 43 47
e 43 48
e 43 49
e 43 50
e 43 51
e 43 52
e 43 53
e 43 54
e 43 55
e 43 56
e 43 57
e 43 58
e 43 59
e 43 60
e 43 61
e 43 62
e 43 63
e 43 64
e 43 65
e 43 66
e 43 68
e 43 73
e 43 74
e 44 45
e 44 46
e 44 47
e 44 48
e 44 49
e 44 50
e 44 51
e 44 52
e 44 53
e 44 54
e 44 55
e 44 56
e 44 57
e 44 58
e 44 59
e 44 61
e 44 62
e 44 63
e 44 64
e 44 65
e 44 66
e 44 73
e 44 74
e 44 75
e 45 48
e 45 49
e 45 50
e 45 51
e 45 52
e 45 53
e 45 54
e 45 56
e 45 57
e 45 58
e 45 59
e 45 60
e 45 61
e 45 62
e 45 63
e 45 64
e 45 65
e 45 66
e 45 69
e 45 74
e 46 49
e 46 60
e 46 64
e 46 65
e 46 66
e 46 67
e 46 69
e 46 70
e 46 71
e 46 72
e 46 73
e 46 74
e 46 75
e 46 76
e 46 78
e 46 79
e 47 52
e 47 62
e 47 64
e 47 66
e 47 67
e 47 68
e 47 69
e 47 70
e 47 71
e 47 72
e 47 73
e 47 74
e 47 77
e 47 78
e 47 79
e 47 80
e 47 81
e 48 50
e 48 58
e 48 62
e 48 73
e 48 87
e 48 91
e 48 95
e 48 96
e 48 97
e 48 98
e 48 99
e 48 100
e 49 59
e 49 60
e 49 63
e 49 78
e 49 84
e 49 92
e 49 94
e 49 95
e 49 96
e 49 97
e 49 98
e 49 99
e 50 51
e 50 80
e 50 85
e 50 95
e 50 96
e 50 97
e 50 98
e 50 99
e 50 100
e 51 54
e 51 56
e 51 64
e 51 70
e 51 71
e 51 73
e 51 85
e 51 89
e 51 91
e 51 94
e 51 95
e 51 96
e 51 97
e 51 98
e 51 99
e 51 100
e 52 58
e 52 62
e 52 65
e 52 78
e 52 79
e 52 83
e 52 85
e 52 93
e 52 95
e 52 96
e 52 97
e 52 98
e 52 99
e 52 100
e 53 58
e 53 64
e 53 66
e 53 69
e 53 75
e 53 89
e 53 95
e 53 96
e 53 97
e 53 98
e 53 99
e 53 100
e 54 61
e 54 62
e 54 64
e 54 68
e 54 69
e 54 71
e 54 74
e 54 81
e 54 95
e 54 96
e 54 97
e 54 99
e 54 100
e 55 57
e 55 61
e 55 65
e 55 73
e 55 83
e 55 86
e 55 91
e 55 95
e 55 96
e 55 97
e 55 99
e 55 100
e 56 58
e 56 71
e 56 82
e 56 96
e 56 98
e 56 99
e 56 100
e 57 60
e 57 61
e 57 65
e 57 73
e 57 77
e 57 78
e 57 80
e 57 82
e 57 85
e 57 91
e 57 96
e 57 97
e 57 98
e 57 99
e 57 100
e 58 63
e 58 73
e 58 87
e 58 92
e 58 93
e 58 95
e 58 96
e 58 97
e 58 98
e 58 99
e 58 100
e 59 62
e 59 72
e 59 83
e 59 90
e 59 92
e 59 94
e 59 95
e 59 96
e 59 97
e 59 98
e 59 99
e 59 100
e 60 66
e 60 75
e 60 87
e 60 90
e 60 93
e 60 95
e 60 96
e 60 97
e 60 98
e 60 99
e 60 100
e 61 64
e 61 67
e 61 81
e 61 89
e 61 90
e 61 95
e 61 96
e 61 97
e 61 98
e 61 99
e 61 100
e 62 64
e 62 71
e 62 76
e 62 79
e 62 82
e 62 84
e 62 86
e 62 87
e 62 95
e 62 96
e 62 97
e 62 98
e 62 99
e 62 100
e 63 64
e 63 68
e 63 69
e 63 70
e 63 83
e 63 89
e 63 95
e 63 96
e 63 97
e 63 98
e 63 99
e 63 100
e 64 67
e 64 71
e 64 75
e 64 84
e 64 89
e 64 92
e 64 93
e 64 95
e 64 96
e 64 97
e 64 98
e 64 99
e 64 100
e 65 71
e 65 76
e 65 89
e 65 95
e 65 96
e 65 97
e 65 99
e 65 100
e 66 71
e 66 72
e 66 78
e 66 82
e 66 94
e 66 95
e 66 96
e 66 97
e 66 98
e 66 99
e 66 100
e 67 70
e 67 74
e 67 75
e 67 76
e 67 80
e 67 88
e 67 90
e 67 95
e 67 97
e 67 98
e 67 99
e 67 100
e 68 72
e 68 75
e 68 85
e 68 87
e 68 95
e 68 96
e 68 97
e 68 98
e 68 99
e 68 100
e 69 71
e 69 76
e 69 78
e 69 84
e 69 95
e 69 96
e 69 97
e 69 98
e 69 99
e 69 100
e 70 79
e 70 86
e 70 95
e 70 96
e 70 97
e 70 99
e 70 100
e 71 85
e 71 95
e 71 96
e 71 97
e 71 99
e 71 100
e 72 83
e 72 85
e 72 91
e 72 92
e 72 93
e 72 95
e 72 96
e 72 97
e 72 98
e 72 99
e 72 100
e 73 74
e 73 78
e 73 79
e 73 90
e 73 91
e 73 93
e 73 96
e 73 97
e 73 98
e 73 99
e 73 100
e 74 79
e 74 90
e 74 96
e 74 97
e 74 98
e 74 99
e 74 100
e 75 90
e 75 91
e 75 95
e 75 96
e 75 97
e 75 98
e 75 99
e 75 100
e 76 79
e 76 81
e 76 89
e 76 95
e 76 96
e 76 97
e 76 98
e 76 99
e 76 100
e 77 85
e 77 86
e 77 90
e 77 95
e 77 96
e 77 97
e 77 98
e 77 99
e 77 100
e 78 80
e 78 82
e 78 83
e 78 94
e 78 96
e 78 97
e 78 98
e 78 99
e 78 100
e 79 95
e 79 96
e 79 97
e 79 98
e 79 99
e 79 100
e 80 86
e 80 91
e 80 95
e 80 97
e 80 98
e 80 99
e 80 100
e 81 85
e 81 90
e 81 92
e 81 93
e 81 94
e 81 95
e 81 96
e 81 97
e 81 98
e 81 99
e 81 100
e 82 95
e 82 96
e 82 97
e 82 98
e 82 99
e 82 100
e 83 85
e 83 91
e 83 95
e 83 96
e 83 97
e 83 98
e 83 99
e 84 89
e 84 95
e 84 96
e 84 98
e 84 99
e 84 100
e 85 87
e 85 94
e 85 95
e 85 96
e 85 97
e 85 98
e 85 99
e 85 100
e 86 93
e 86 95
e 86 96
e 86 97
e 86 98
e 86 99
e 86 100
e 87 95
e 87 96
e 87 97
e 87 98
e 87 99
e 87 100
e 88 90
e 88 92
e 88 95
e 88 96
e 88 97
e 88 98
e 88 99
e 88 100
e 89 95
e 89 96
e 89 97
e 89 98
e 89 99
e 89 100
e 90 91
e 90 95
e 90 96
e 90 97
e 90 98
e 90 99
e 90 100
e 91 93
e 91 95
e 91 96
e 91 97
e 91 98
e 91 99
e 92 95
e 92 96
e 92 97
e 92 98
e 92 99
e 92 100
e 93 94
e 93 95
e 93 96
e 93 97
e 93 98
e 93 99
e 93 100
e 94 96
e 94 97
e 94 98
e 94 100
e 95 97
e 96 97
e 96 99
e 96 100
e 97 98
